TOUR_SECTION
77
34
52
57
105
30
116
137
24
193
83
13
93
168
22
100
180
15
66
56
103
182
187
8
104
61
6
178
67
48
41
1
200
125
121
85
82
169
138
45
64
78
59
51
185
123
158
176
21
50
197
155
159
119
46
29
69
150
90
2
124
38
98
161
23
128
47
95
112
7
99
194
39
120
42
147
149
108
171
142
191
60
10
114
31
18
44
106
122
113
195
183
81
84
131
184
63
12
133
109
65
89
14
141
167
135
73
16
154
58
175
25
88
129
174
33
170
132
32
151
36
118
126
164
4
146
5
192
19
27
199
127
68
186
148
91
188
11
74
110
130
3
163
76
162
160
153
107
117
79
156
190
92
26
144
40
179
94
115
37
9
173
55
71
43
20
102
75
157
189
139
17
143
96
111
28
49
196
136
177
70
54
53
72
145
97
166
87
198
80
172
140
134
35
181
62
101
152
86
165
-1
EOF